(set-info :smt-lib-version 2.6)
(set-logic QF_UFNIA)
(set-info :source |
Generated by: Geoff Sutcliffe
Generated on: 2026-03-11
Generator: TPTPWorld
Application: Benchmarking automated theorem provers
Time limit: 120.0

These benchmarks are translations from the TPTP Library (Thousands of
Problems for Theorem Provers), see http://www.cs.miami.edu/~tptp/

The TPTP is maintained by Geoff Sutcliffe, and he contributed this
selection of benchmarks to SMT-LIB.  They were exported from the
v9.2.1 realease of TPTP.
|)
(set-info :category "industrial")
(set-info :status "unknown")
; SZS status Success
(declare-sort $$unsorted 0)
(declare-fun tptp.z () Int)
(declare-fun tptp.x () Int)
(declare-fun tptp.y () Int)
(assert (> tptp.x 0))
(assert (> tptp.y 0))
(assert (<= 0 (+ (* (* tptp.z tptp.z) tptp.x) (* (- 1) (* tptp.y tptp.x)))))
(assert (= (* (* 2 tptp.z) tptp.z) tptp.y))
(check-sat)
